Version identifier: 12.10.0.0 | 2019-11-26 | 843d4de
CPXPARAM_WorkMem                                 28672
Tried aggregator 2 times.
MIP Presolve eliminated 8 rows and 0 columns.
MIP Presolve added 16 rows and 0 columns.
MIP Presolve modified 3 coefficients.
Aggregator did 30 substitutions.
Reduced MIP has 50 rows, 50 columns, and 198 nonzeros.
Reduced MIP has 50 binaries, 0 generals, 0 SOSs, and 0 indicators.
Presolve time = 0,00 sec. (0,40 ticks)
Found incumbent of value 486,000000 after 0,00 sec. (0,46 ticks)
Probing time = 0,00 sec. (0,13 ticks)
Tried aggregator 1 time.
Detecting symmetries...
Reduced MIP has 50 rows, 50 columns, and 198 nonzeros.
Reduced MIP has 50 binaries, 0 generals, 0 SOSs, and 0 indicators.
Presolve time = 0,00 sec. (0,15 ticks)
Probing time = 0,00 sec. (0,13 ticks)
Clique table members: 199.
MIP emphasis: balance optimality and feasibility.
MIP search method: dynamic search.
Parallel mode: deterministic, using up to 16 threads.
Root relaxation solution time = 0,00 sec. (0,07 ticks)

        Nodes                                         Cuts/
   Node  Left     Objective  IInf  Best Integer    Best Bound    ItCnt     Gap

*     0+    0                          486,0000        0,0000           100,00%
*     0+    0                          462,0000        0,0000           100,00%
      0     0      288,0000    30      462,0000      288,0000       12   37,66%
      0     0      346,3003    30      462,0000     Cuts: 112       55   25,04%
      0     0      365,3332    30      462,0000      Cuts: 83       86   20,92%
      0     0      369,3304    30      462,0000      Cuts: 74      108   20,06%
      0     0      370,7894    30      462,0000      Cuts: 30      124   19,74%
      0     0      375,9119    30      462,0000      Cuts: 34      149   18,63%
Detecting symmetries...
      0     0      376,6982    30      462,0000      Cuts: 22      166   18,46%
      0     0      378,1191    30      462,0000      Cuts: 24      177   18,16%
      0     0      378,3587    30      462,0000      Cuts: 33      190   18,10%
      0     0      378,5740    30      462,0000      Cuts: 18      199   18,06%
      0     0      378,8039    30      462,0000      Cuts: 30      210   18,01%
      0     0      379,8893    30      462,0000      Cuts: 19      231   17,77%
      0     0      380,1923    30      462,0000      Cuts: 14      246   17,71%
      0     0      380,3075    30      462,0000       Cuts: 7      257   17,68%
      0     0      380,5055    30      462,0000      Cuts: 28      271   17,64%
      0     0      381,1310    30      462,0000       Cuts: 9      278   17,50%
      0     0      381,4854    30      462,0000      Cuts: 29      291   17,43%
      0     0      381,6832    30      462,0000      Cuts: 28      302   17,38%
      0     0      381,8390    30      462,0000      Cuts: 17      315   17,35%
      0     0      381,8736    30      462,0000       Cuts: 9      329   17,34%
      0     0      381,9535    30      462,0000      Cuts: 18      336   17,33%
      0     0      382,0676    30      462,0000       Cuts: 8      350   17,30%
      0     0      382,1724    30      462,0000       Cuts: 2      355   17,28%
      0     0      382,2624    30      462,0000      Cuts: 10      366   17,26%
      0     0      382,3287    30      462,0000       Cuts: 4      372   17,24%
      0     0        cutoff            462,0000      462,0000      372    0,00%
Elapsed time = 0,06 sec. (28,52 ticks, tree = 0,01 MB, solutions = 2)

Clique cuts applied:  8
Cover cuts applied:  5
Implied bound cuts applied:  6
Zero-half cuts applied:  18
Gomory fractional cuts applied:  2

Root node processing (before b&c):
  Real time             =    0,06 sec. (28,52 ticks)
Parallel b&c, 16 threads:
  Real time             =    0,00 sec. (0,00 ticks)
  Sync time (average)   =    0,00 sec.
  Wait time (average)   =    0,00 sec.
                          ------------
Total (root+branch&cut) =    0,06 sec. (28,52 ticks)
